Nx := 50
Ny := 50
Nz := 1
dx := 5e-9
dy := 5e-9
dz := 1e-9
setgridsize(Nx, Ny, Nz)
setcellsize(dx, dy, dz)
msat = 810e3
aex = 13e-12
gammall = 187e9
cir := circle(40e-9)
// m.setInShape(cir, vortex(1, 1))
m = uniform(0.5, 0.5, 0.5)
setgeom(cir)

tableSave(m)
m = uniform(-0.5, -0.5, -0.5)
tableSave(m)
// tableSave(m)
// tableSave(E_total)
run(1e-9)
// run(1e-10)
// relax()
// AutoSave(b_demag, 1e-11)
// // AutoSaveAs(m, "nop", 1e-11)
// run(1e-10)
// saveas(m, "qwe")